
  22   10
  10   10   10   10   10   10   10   10   10   10

   0   0   0   0   0   0   0   0   0   0   0  14 2 3 4 5 6 7 8 9 16 17 18 19 20 21 
  10  10  10  10  10  10  10  10  10  10  10   3 13 12 10 
   8  10  10  10  10  10  10  10  10  10  10   2 11 10 
   5  10  10  10  10  10  10  10  10  10  10   1 10 
  10  10  10  10  10  10  10  10  10  10  10   1 15 
   5  10  10  10  10  10  10  10  10  10  10   1 14 
   6  10  10  10  10  10  10  10  10  10  10   1 13 
   6  10  10  10  10  10  10  10  10  10  10   1 12 
   9  10  10  10  10  10  10  10  10  10  10   1 11 
   5  10  10  10  10  10  10  10  10  10  10   1 22
   4  10  10  10  10  10  10  10  10  10  10   1 22
   3  10  10  10  10  10  10  10  10  10  10   1 22
   4  10  10  10  10  10  10  10  10  10  10   1 22
   1  10  10  10  10  10  10  10  10  10  10   1 22
   6  10  10  10  10  10  10  10  10  10  10   1 22
   5  10  10  10  10  10  10  10  10  10  10   1 22
   6  10  10  10  10  10  10  10  10  10  10   1 22
   5  10  10  10  10  10  10  10  10  10  10   1 22
   7  10  10  10  10  10  10  10  10  10  10   1 22
   6  10  10  10  10  10  10  10  10  10  10   1 22
   5  10  10  10  10  10  10  10  10  10  10   1 22
   0   0   0   0   0   0   0   0   0   0   0   0 
